13
1 2
2 1
3 5
4 4
5 4
6 3
7 2
8 9
9 2
10 10
11 7
12 1
39
0 1 4
1 0 4
0 2 12
2 0 12
0 3 28
3 0 28
0 4 30
4 0 30
0 5 65
5 0 65
0 6 78
6 0 78
0 7 4
7 0 4
0 8 72
8 0 72
0 9 26
9 0 26
0 10 92
10 0 92
0 11 84
11 0 84
0 12 90
12 0 90
1 5 1
1 6 21
1 10 44
2 9 11
2 11 80
2 12 47
4 10 83
5 10 89
6 7 100
6 9 41
6 12 73
7 8 41
7 11 83
9 11 52
10 11 18
